c 3 - XORSAT
p cnf 30 120
29 27 30 0
-29 -27 30 0
-29 27 -30 0
29 -27 -30 0
-2 -14 -24 0
-2 14 24 0
2 -14 24 0
2 14 -24 0
-5 -16 -28 0
-5 16 28 0
5 -16 28 0
5 16 -28 0
1 4 13 0
-1 -4 13 0
-1 4 -13 0
1 -4 -13 0
-13 -21 -24 0
-13 21 24 0
13 -21 24 0
13 21 -24 0
-2 -13 -20 0
-2 13 20 0
2 -13 20 0
2 13 -20 0
12 14 28 0
-12 -14 28 0
-12 14 -28 0
12 -14 -28 0
-5 -9 -23 0
-5 9 23 0
5 -9 23 0
5 9 -23 0
-12 -18 -22 0
-12 18 22 0
12 -18 22 0
12 18 -22 0
-6 -17 -25 0
-6 17 25 0
6 -17 25 0
6 17 -25 0
-24 -25 -26 0
-24 25 26 0
24 -25 26 0
24 25 -26 0
-17 -20 -21 0
-17 20 21 0
17 -20 21 0
17 20 -21 0
-1 -8 -11 0
-1 8 11 0
1 -8 11 0
1 8 -11 0
3 4 6 0
-3 -4 6 0
-3 4 -6 0
3 -4 -6 0
25 29 30 0
-25 -29 30 0
-25 29 -30 0
25 -29 -30 0
1 26 30 0
-1 -26 30 0
-1 26 -30 0
1 -26 -30 0
17 19 22 0
-17 -19 22 0
-17 19 -22 0
17 -19 -22 0
8 11 6 0
-8 -11 6 0
-8 11 -6 0
8 -11 -6 0
-9 -10 -15 0
-9 10 15 0
9 -10 15 0
9 10 -15 0
2 7 18 0
-2 -7 18 0
-2 7 -18 0
2 -7 -18 0
-3 -8 -9 0
-3 8 9 0
3 -8 9 0
3 8 -9 0
11 12 18 0
-11 -12 18 0
-11 12 -18 0
11 -12 -18 0
20 21 29 0
-20 -21 29 0
-20 21 -29 0
20 -21 -29 0
-10 -7 -15 0
-10 7 15 0
10 -7 15 0
10 7 -15 0
27 28 16 0
-27 -28 16 0
-27 28 -16 0
27 -28 -16 0
14 15 19 0
-14 -15 19 0
-14 15 -19 0
14 -15 -19 0
4 16 22 0
-4 -16 22 0
-4 16 -22 0
4 -16 -22 0
-3 -23 -26 0
-3 23 26 0
3 -23 26 0
3 23 -26 0
-5 -7 -23 0
-5 7 23 0
5 -7 23 0
5 7 -23 0
-10 -19 -27 0
-10 19 27 0
10 -19 27 0
10 19 -27 0
